NAME: random_50_5
TYPE: TSP
COMMENT: random_50_5
DIMENSION: 50
EDGE_WEIGHT_TYPE: EUC_2D
NODE_COORD_SECTION
1 415 383
2 414 150
3 255 61
4 481 186
5 6 455
6 414 404
7 139 307
8 109 139
9 391 65
10 110 456
11 92 328
12 262 91
13 431 20
14 397 400
15 236 454
16 165 247
17 77 213
18 234 404
19 204 127
20 148 102
21 110 398
22 46 9
23 447 424
24 468 353
25 55 173
26 94 329
27 208 85
28 116 459
29 416 59
30 139 221
31 5 74
32 56 377
33 264 330
34 24 274
35 20 229
36 163 172
37 220 261
38 106 162
39 385 124
40 42 257
41 459 165
42 198 18
43 436 61
44 403 140
45 423 181
46 7 77
47 12 100
48 72 301
49 412 418
50 390 311
